p tw 70 9451 2 
1 3 
1 4 
1 5 
1 6 
1 7 
1 8 
1 9 
1 10 
1 11 
1 12 
1 13 
1 14 
1 15 
1 16 
1 17 
1 18 
1 19 
1 25 
1 31 
1 39 
1 43 
1 48 
1 57 
1 61 
1 69 
1 70 
2 3 
2 4 
2 5 
2 6 
2 7 
2 8 
2 9 
2 10 
2 11 
2 12 
2 20 
2 21 
2 22 
2 23 
2 24 
2 25 
2 26 
2 27 
2 38 
2 41 
2 49 
2 54 
2 61 
2 64 
2 66 
2 68 
3 4 
3 5 
3 6 
3 7 
3 8 
3 9 
3 10 
3 12 
3 17 
3 20 
3 26 
3 28 
3 29 
3 30 
3 31 
3 32 
3 33 
3 34 
3 35 
3 48 
3 52 
3 56 
3 63 
3 67 
3 68 
4 5 
4 6 
4 7 
4 8 
4 9 
4 10 
4 11 
4 13 
4 21 
4 28 
4 33 
4 35 
4 36 
4 37 
4 38 
4 39 
4 40 
4 42 
4 47 
4 52 
4 58 
4 59 
4 60 
4 61 
5 6 
5 7 
5 8 
5 9 
5 10 
5 14 
5 19 
5 20 
5 22 
5 29 
5 35 
5 40 
5 41 
5 42 
5 43 
5 44 
5 45 
5 50 
5 53 
5 57 
5 59 
5 65 
5 68 
6 7 
6 8 
6 9 
6 10 
6 15 
6 17 
6 22 
6 25 
6 30 
6 33 
6 36 
6 37 
6 44 
6 46 
6 47 
6 48 
6 49 
6 50 
6 55 
6 62 
6 65 
6 66 
7 8 
7 9 
7 10 
7 14 
7 19 
7 23 
7 26 
7 31 
7 34 
7 36 
7 37 
7 45 
7 46 
7 51 
7 52 
7 53 
7 54 
7 55 
7 60 
7 64 
7 69 
8 9 
8 10 
8 13 
8 16 
8 21 
8 24 
8 30 
8 32 
8 41 
8 43 
8 47 
8 51 
8 53 
8 55 
8 56 
8 57 
8 58 
8 62 
8 63 
8 64 
9 10 
9 16 
9 18 
9 23 
9 27 
9 29 
9 32 
9 38 
9 40 
9 44 
9 46 
9 49 
9 59 
9 60 
9 62 
9 63 
9 67 
9 69 
9 70 
10 15 
10 18 
10 24 
10 27 
10 28 
10 34 
10 39 
10 42 
10 45 
10 50 
10 51 
10 54 
10 56 
10 58 
10 65 
10 66 
10 67 
10 70 
11 12 
11 13 
11 14 
11 15 
11 16 
11 17 
11 18 
11 19 
11 20 
11 21 
11 22 
11 23 
11 24 
11 25 
11 26 
11 27 
11 33 
11 42 
11 47 
11 52 
11 58 
11 59 
11 60 
11 61 
12 13 
12 14 
12 15 
12 16 
12 17 
12 18 
12 19 
12 20 
12 28 
12 29 
12 30 
12 31 
12 32 
12 33 
12 34 
12 38 
12 41 
12 49 
12 54 
12 61 
12 64 
12 66 
12 68 
13 14 
13 15 
13 16 
13 17 
13 18 
13 19 
13 21 
13 24 
13 28 
13 30 
13 35 
13 36 
13 37 
13 38 
13 39 
13 40 
13 43 
13 53 
13 58 
13 62 
13 63 
13 64 
14 15 
14 16 
14 17 
14 18 
14 19 
14 22 
14 23 
14 29 
14 31 
14 35 
14 37 
14 41 
14 42 
14 43 
14 44 
14 45 
14 46 
14 51 
14 52 
14 53 
14 54 
15 16 
15 17 
15 18 
15 19 
15 22 
15 27 
15 28 
15 30 
15 36 
15 45 
15 46 
15 47 
15 48 
15 49 
15 50 
15 54 
15 56 
15 58 
15 65 
15 70 
16 17 
16 18 
16 19 
16 21 
16 23 
16 29 
16 32 
16 40 
16 41 
16 47 
16 49 
16 51 
16 55 
16 56 
16 57 
16 60 
16 62 
16 67 
16 70 
17 18 
17 19 
17 25 
17 26 
17 33 
17 35 
17 37 
17 44 
17 48 
17 52 
17 55 
17 56 
17 62 
17 63 
17 65 
17 66 
17 67 
17 68 
18 19 
18 24 
18 27 
18 32 
18 34 
18 38 
18 39 
18 42 
18 44 
18 46 
18 50 
18 51 
18 59 
18 63 
18 66 
18 67 
18 69 
19 20 
19 26 
19 34 
19 36 
19 40 
19 45 
19 50 
19 53 
19 55 
19 57 
19 59 
19 60 
19 64 
19 65 
19 68 
19 69 
20 21 
20 22 
20 23 
20 24 
20 25 
20 26 
20 27 
20 28 
20 29 
20 30 
20 31 
20 32 
20 33 
20 34 
20 40 
20 50 
20 53 
20 57 
20 59 
20 65 
20 68 
21 22 
21 23 
21 24 
21 25 
21 26 
21 27 
21 28 
21 32 
21 35 
21 36 
21 37 
21 38 
21 39 
21 40 
21 41 
21 47 
21 51 
21 55 
21 56 
21 57 
22 23 
22 24 
22 25 
22 26 
22 27 
22 29 
22 30 
22 35 
22 36 
22 41 
22 42 
22 43 
22 44 
22 45 
22 46 
22 47 
22 48 
22 49 
22 50 
23 24 
23 25 
23 26 
23 27 
23 29 
23 31 
23 37 
23 40 
23 46 
23 49 
23 51 
23 52 
23 53 
23 54 
23 60 
23 62 
23 67 
23 70 
24 25 
24 26 
24 27 
24 30 
24 34 
24 39 
24 42 
24 43 
24 50 
24 51 
24 53 
24 58 
24 62 
24 63 
24 64 
24 66 
24 67 
25 26 
25 27 
25 31 
25 33 
25 37 
25 39 
25 43 
25 44 
25 48 
25 55 
25 57 
25 61 
25 62 
25 65 
25 66 
25 69 
25 70 
26 27 
26 34 
26 35 
26 36 
26 45 
26 48 
26 52 
26 55 
26 56 
26 60 
26 63 
26 64 
26 67 
26 68 
26 69 
27 28 
27 32 
27 38 
27 44 
27 45 
27 46 
27 54 
27 56 
27 58 
27 59 
27 63 
27 65 
27 69 
27 70 
28 29 
28 30 
28 31 
28 32 
28 33 
28 34 
28 35 
28 36 
28 37 
28 38 
28 39 
28 40 
28 45 
28 54 
28 56 
28 58 
28 65 
28 70 
29 30 
29 31 
29 32 
29 33 
29 34 
29 35 
29 40 
29 41 
29 42 
29 43 
29 44 
29 45 
29 49 
29 60 
29 62 
29 67 
29 70 
30 31 
30 32 
30 33 
30 34 
30 36 
30 43 
30 46 
30 47 
30 48 
30 49 
30 50 
30 53 
30 58 
30 62 
30 63 
30 64 
31 32 
31 33 
31 34 
31 37 
31 39 
31 43 
31 46 
31 48 
31 51 
31 52 
31 53 
31 54 
31 57 
31 61 
31 69 
31 70 
32 33 
32 34 
32 38 
32 41 
32 44 
32 46 
32 47 
32 51 
32 55 
32 56 
32 57 
32 59 
32 63 
32 69 
33 34 
33 37 
33 42 
33 44 
33 47 
33 52 
33 55 
33 58 
33 59 
33 60 
33 61 
33 62 
33 65 
33 66 
34 36 
34 39 
34 42 
34 45 
34 50 
34 51 
34 55 
34 60 
34 64 
34 66 
34 67 
34 69 
35 36 
35 37 
35 38 
35 39 
35 40 
35 41 
35 42 
35 43 
35 44 
35 45 
35 48 
35 52 
35 56 
35 63 
35 67 
35 68 
36 37 
36 38 
36 39 
36 40 
36 45 
36 46 
36 47 
36 48 
36 49 
36 50 
36 55 
36 60 
36 64 
36 69 
37 38 
37 39 
37 40 
37 44 
37 46 
37 51 
37 52 
37 53 
37 54 
37 55 
37 62 
37 65 
37 66 
38 39 
38 40 
38 41 
38 44 
38 46 
38 49 
38 54 
38 59 
38 61 
38 63 
38 64 
38 66 
38 68 
38 69 
39 40 
39 42 
39 43 
39 48 
39 50 
39 51 
39 57 
39 61 
39 66 
39 67 
39 69 
39 70 
40 49 
40 50 
40 53 
40 57 
40 59 
40 60 
40 62 
40 65 
40 67 
40 68 
40 70 
41 42 
41 43 
41 44 
41 45 
41 47 
41 49 
41 51 
41 54 
41 55 
41 56 
41 57 
41 61 
41 64 
41 66 
41 68 
42 43 
42 44 
42 45 
42 47 
42 50 
42 51 
42 52 
42 58 
42 59 
42 60 
42 61 
42 66 
42 67 
43 44 
43 45 
43 48 
43 53 
43 57 
43 58 
43 61 
43 62 
43 63 
43 64 
43 69 
43 70 
44 45 
44 46 
44 55 
44 59 
44 62 
44 63 
44 65 
44 66 
44 69 
45 54 
45 55 
45 56 
45 58 
45 60 
45 64 
45 65 
45 69 
45 70 
46 47 
46 48 
46 49 
46 50 
46 51 
46 52 
46 53 
46 54 
46 59 
46 63 
46 69 
47 48 
47 49 
47 50 
47 51 
47 52 
47 55 
47 56 
47 57 
47 58 
47 59 
47 60 
47 61 
48 49 
48 50 
48 52 
48 56 
48 57 
48 61 
48 63 
48 67 
48 68 
48 69 
48 70 
49 50 
49 54 
49 60 
49 61 
49 62 
49 64 
49 66 
49 67 
49 68 
49 70 
50 51 
50 53 
50 57 
50 59 
50 65 
50 66 
50 67 
50 68 
51 52 
51 53 
51 54 
51 55 
51 56 
51 57 
51 66 
51 67 
52 53 
52 54 
52 56 
52 58 
52 59 
52 60 
52 61 
52 63 
52 67 
52 68 
53 54 
53 57 
53 58 
53 59 
53 62 
53 63 
53 64 
53 65 
53 68 
54 56 
54 58 
54 61 
54 64 
54 65 
54 66 
54 68 
54 70 
55 56 
55 57 
55 60 
55 62 
55 64 
55 65 
55 66 
55 69 
56 57 
56 58 
56 63 
56 65 
56 67 
56 68 
56 70 
57 59 
57 61 
57 65 
57 68 
57 69 
57 70 
58 59 
58 60 
58 61 
58 62 
58 63 
58 64 
58 65 
58 70 
59 60 
59 61 
59 63 
59 65 
59 68 
59 69 
60 61 
60 62 
60 64 
60 67 
60 69 
60 70 
61 64 
61 66 
61 68 
61 69 
61 70 
62 63 
62 64 
62 65 
62 66 
62 67 
62 70 
63 64 
63 67 
63 68 
63 69 
64 66 
64 68 
64 69 
65 66 
65 68 
65 70 
66 67 
66 68 
67 68 
67 70 
69 70 
